Maximize
F 

Subject to
F - 20y224 - 15y8 - 5y74 - 5y218 - 15y72 - 15y9 - 20y168 - 5y246 - 5y128 - 15y197 - 5y115 - 15y213 - 5y171 - 10y41 - 20y176 - 10y175 - 5y54 - 20y80 - 10y130 - 5y189 - 15y217 - 15y221 - 20y138 - 10y61 - 5y75 - 5y179 - 15y144 - 10y231 - 10y139 - 5y216 = 0

x228x75x1 + x228x216x1 
<= 2
x5x216x1 
<= 1
x150x61x1 + x150x75x1 + x150x231x1 + x150x216x1 
<= 1
x28x231x1 + x28x216x1 
<= 1
x114x176x1 + x114x80x1 + x114x189x1 + x114x61x1 + x114x75x1 + x114x231x1 + x114x216x1 
<= 1

x134x168x2 + x134x171x2 + x134x54x2 + x134x221x2 + x134x61x2 + x134x75x2 + x134x179x2 + x134x144x2 + x134x231x2 + x134x139x2 + x134x216x2 
<= 1
x22x171x2 + x22x61x2 + x22x75x2 + x22x144x2 + x22x231x2 + x22x139x2 + x22x216x2 
<= 1
x196x221x2 + x196x61x2 + x196x75x2 + x196x179x2 + x196x144x2 + x196x231x2 + x196x139x2 + x196x216x2 
<= 1
x206x224x2 + x206x74x2 + x206x168x2 + x206x246x2 + x206x213x2 + x206x171x2 + x206x54x2 + x206x221x2 + x206x61x2 + x206x75x2 + x206x179x2 + x206x144x2 + x206x231x2 + x206x139x2 + x206x216x2 
<= 2
x84x74x2 + x84x168x2 + x84x246x2 + x84x213x2 + x84x171x2 + x84x54x2 + x84x221x2 + x84x61x2 + x84x75x2 + x84x179x2 + x84x144x2 + x84x231x2 + x84x139x2 + x84x216x2 
<= 2
x114x221x2 + x114x61x2 + x114x75x2 + x114x179x2 + x114x144x2 + x114x231x2 + x114x139x2 + x114x216x2 
<= 1

x134x168x3 + x134x115x3 + x134x171x3 + x134x41x3 + x134x175x3 + x134x130x3 + x134x217x3 + x134x138x3 + x134x139x3 
<= 1
x129x72x3 + x129x115x3 + x129x171x3 + x129x41x3 + x129x175x3 + x129x130x3 + x129x217x3 + x129x138x3 + x129x139x3 
<= 1
x22x171x3 + x22x139x3 
<= 1
x196x130x3 + x196x217x3 + x196x138x3 + x196x139x3 
<= 1
x5x139x3 
<= 1
x150x139x3 
<= 1
x2x139x3 
<= 2
x28x139x3 
<= 1

x206x224x2 
- x224x0x2
- x224x213x2 - x224x54x2 - x224x221x2 - x224x61x2 - x224x75x2 - x224x179x2 - x224x144x2 - x224x231x2 - x224x139x2 - x224x216x2 
= 0





- x8x197x3 - x8x41x3 - x8x175x3 - x8x130x3 - x8x217x3 - x8x138x3 - x8x139x3 
= 0


x206x74x2 + x84x74x2 
- x74x0x2
- x74x168x2 - x74x171x2 - x74x54x2 - x74x221x2 - x74x61x2 - x74x75x2 - x74x179x2 - x74x144x2 - x74x231x2 - x74x139x2 - x74x216x2 
= 0

- x74x168x3 - x74x171x3 - x74x41x3 - x74x175x3 - x74x130x3 - x74x217x3 - x74x138x3 - x74x139x3 
= 0


- x218x128x1 - x218x54x1 - x218x80x1 - x218x189x1 - x218x61x1 - x218x75x1 - x218x231x1 - x218x216x1 
= 0





x129x72x3 
- x72x0x3
- x72x217x3 - x72x139x3 
= 0


- x9x128x1 - x9x54x1 - x9x80x1 - x9x189x1 - x9x61x1 - x9x75x1 - x9x231x1 - x9x216x1 
= 0




x134x168x2 + x206x168x2 + x84x168x2 + x74x168x2 
- x168x0x2
- x168x171x2 - x168x61x2 - x168x75x2 - x168x179x2 - x168x144x2 - x168x231x2 - x168x139x2 - x168x216x2 
= 0
x134x168x3 + x74x168x3 
- x168x0x3
- x168x171x3 - x168x138x3 - x168x139x3 
= 0


x206x246x2 + x84x246x2 
- x246x0x2
- x246x54x2 - x246x221x2 - x246x61x2 - x246x75x2 - x246x179x2 - x246x144x2 - x246x231x2 - x246x139x2 - x246x216x2 
= 0


x218x128x1 + x9x128x1 
- x128x0x1
- x128x54x1 - x128x80x1 - x128x189x1 - x128x61x1 - x128x75x1 - x128x231x1 - x128x216x1 
= 0





x8x197x3 
- x197x0x3
- x197x175x3 - x197x130x3 - x197x217x3 - x197x138x3 - x197x139x3 
= 0


- x115x54x1 - x115x80x1 - x115x61x1 - x115x75x1 - x115x231x1 - x115x216x1 
= 0

x134x115x3 + x129x115x3 
- x115x0x3
- x115x41x3 - x115x130x3 - x115x217x3 - x115x138x3 - x115x139x3 
= 0


x206x213x2 + x84x213x2 + x224x213x2 
- x213x0x2
- x213x54x2 - x213x61x2 - x213x75x2 - x213x179x2 - x213x144x2 - x213x231x2 - x213x139x2 - x213x216x2 
= 0



x134x171x2 + x22x171x2 + x206x171x2 + x84x171x2 + x74x171x2 + x168x171x2 
- x171x0x2
- x171x144x2 - x171x231x2 - x171x139x2 - x171x216x2 
= 0
x134x171x3 + x129x171x3 + x22x171x3 + x74x171x3 + x168x171x3 
- x171x0x3
- x171x139x3 
= 0



x134x41x3 + x129x41x3 + x8x41x3 + x74x41x3 + x115x41x3 
- x41x0x3
- x41x130x3 - x41x217x3 - x41x139x3 
= 0

x114x176x1 
- x176x0x1
- x176x61x1 - x176x75x1 - x176x216x1 
= 0





x134x175x3 + x129x175x3 + x8x175x3 + x74x175x3 + x197x175x3 
- x175x0x3
- x175x138x3 - x175x139x3 
= 0

x218x54x1 + x9x54x1 + x128x54x1 + x115x54x1 
- x54x0x1
- x54x80x1 - x54x231x1 - x54x216x1 
= 0
x134x54x2 + x206x54x2 + x84x54x2 + x224x54x2 + x74x54x2 + x246x54x2 + x213x54x2 
- x54x0x2
- x54x179x2 - x54x144x2 - x54x231x2 - x54x139x2 - x54x216x2 
= 0


x114x80x1 + x218x80x1 + x9x80x1 + x128x80x1 + x115x80x1 + x54x80x1 
- x80x0x1
- x80x231x1 - x80x216x1 
= 0





x134x130x3 + x129x130x3 + x196x130x3 + x8x130x3 + x74x130x3 + x197x130x3 + x115x130x3 + x41x130x3 
- x130x0x3
- x130x139x3 
= 0

x114x189x1 + x218x189x1 + x9x189x1 + x128x189x1 
- x189x0x1

= 0





x134x217x3 + x129x217x3 + x196x217x3 + x8x217x3 + x74x217x3 + x72x217x3 + x197x217x3 + x115x217x3 + x41x217x3 
- x217x0x3
- x217x139x3 
= 0


x134x221x2 + x196x221x2 + x206x221x2 + x84x221x2 + x114x221x2 + x224x221x2 + x74x221x2 + x246x221x2 
- x221x0x2
- x221x144x2 - x221x139x2 
= 0




x134x138x3 + x129x138x3 + x196x138x3 + x8x138x3 + x74x138x3 + x168x138x3 + x197x138x3 + x115x138x3 + x175x138x3 
- x138x0x3

= 0

x150x61x1 + x114x61x1 + x218x61x1 + x9x61x1 + x128x61x1 + x115x61x1 + x176x61x1 
- x61x0x1
- x61x216x1 
= 0
x134x61x2 + x22x61x2 + x196x61x2 + x206x61x2 + x84x61x2 + x114x61x2 + x224x61x2 + x74x61x2 + x168x61x2 + x246x61x2 + x213x61x2 
- x61x0x2
- x61x144x2 - x61x139x2 - x61x216x2 
= 0


x228x75x1 + x150x75x1 + x114x75x1 + x218x75x1 + x9x75x1 + x128x75x1 + x115x75x1 + x176x75x1 
- x75x0x1

= 0
x134x75x2 + x22x75x2 + x196x75x2 + x206x75x2 + x84x75x2 + x114x75x2 + x224x75x2 + x74x75x2 + x168x75x2 + x246x75x2 + x213x75x2 
- x75x0x2
- x75x144x2 - x75x139x2 
= 0



x134x179x2 + x196x179x2 + x206x179x2 + x84x179x2 + x114x179x2 + x224x179x2 + x74x179x2 + x168x179x2 + x246x179x2 + x213x179x2 + x54x179x2 
- x179x0x2
- x179x231x2 - x179x216x2 
= 0



x134x144x2 + x22x144x2 + x196x144x2 + x206x144x2 + x84x144x2 + x114x144x2 + x224x144x2 + x74x144x2 + x168x144x2 + x246x144x2 + x213x144x2 + x171x144x2 + x54x144x2 + x221x144x2 + x61x144x2 + x75x144x2 
- x144x0x2

= 0


x150x231x1 + x28x231x1 + x114x231x1 + x218x231x1 + x9x231x1 + x128x231x1 + x115x231x1 + x54x231x1 + x80x231x1 
- x231x0x1

= 0
x134x231x2 + x22x231x2 + x196x231x2 + x206x231x2 + x84x231x2 + x114x231x2 + x224x231x2 + x74x231x2 + x168x231x2 + x246x231x2 + x213x231x2 + x171x231x2 + x54x231x2 + x179x231x2 
- x231x0x2

= 0



x134x139x2 + x22x139x2 + x196x139x2 + x206x139x2 + x84x139x2 + x114x139x2 + x224x139x2 + x74x139x2 + x168x139x2 + x246x139x2 + x213x139x2 + x171x139x2 + x54x139x2 + x221x139x2 + x61x139x2 + x75x139x2 
- x139x0x2

= 0
x134x139x3 + x129x139x3 + x22x139x3 + x196x139x3 + x5x139x3 + x150x139x3 + x2x139x3 + x28x139x3 + x8x139x3 + x74x139x3 + x72x139x3 + x168x139x3 + x197x139x3 + x115x139x3 + x171x139x3 + x41x139x3 + x175x139x3 + x130x139x3 + x217x139x3 
- x139x0x3

= 0

x228x216x1 + x5x216x1 + x150x216x1 + x28x216x1 + x114x216x1 + x218x216x1 + x9x216x1 + x128x216x1 + x115x216x1 + x176x216x1 + x54x216x1 + x80x216x1 + x61x216x1 
- x216x0x1

= 0
x134x216x2 + x22x216x2 + x196x216x2 + x206x216x2 + x84x216x2 + x114x216x2 + x224x216x2 + x74x216x2 + x168x216x2 + x246x216x2 + x213x216x2 + x171x216x2 + x54x216x2 + x61x216x2 + x179x216x2 
- x216x0x2

= 0


2y224 - x206x224x2 = 0
2y8 = 0
1y74 - x206x74x2 - x84x74x2 = 0
1y74 = 0
2y218 = 0
2y72 - x129x72x3 = 0
2y9 = 0
1y168 - x134x168x2 - x206x168x2 - x84x168x2 - x74x168x2 = 0
1y168 - x134x168x3 - x74x168x3 = 0
2y246 - x206x246x2 - x84x246x2 = 0
2y128 - x218x128x1 - x9x128x1 = 0
2y197 - x8x197x3 = 0
1y115 = 0
1y115 - x134x115x3 - x129x115x3 = 0
2y213 - x206x213x2 - x84x213x2 - x224x213x2 = 0
1y171 - x134x171x2 - x22x171x2 - x206x171x2 - x84x171x2 - x74x171x2 - x168x171x2 = 0
1y171 - x134x171x3 - x129x171x3 - x22x171x3 - x74x171x3 - x168x171x3 = 0
2y41 - x134x41x3 - x129x41x3 - x8x41x3 - x74x41x3 - x115x41x3 = 0
2y176 - x114x176x1 = 0
2y175 - x134x175x3 - x129x175x3 - x8x175x3 - x74x175x3 - x197x175x3 = 0
1y54 - x218x54x1 - x9x54x1 - x128x54x1 - x115x54x1 = 0
1y54 - x134x54x2 - x206x54x2 - x84x54x2 - x224x54x2 - x74x54x2 - x246x54x2 - x213x54x2 = 0
2y80 - x114x80x1 - x218x80x1 - x9x80x1 - x128x80x1 - x115x80x1 - x54x80x1 = 0
2y130 - x134x130x3 - x129x130x3 - x196x130x3 - x8x130x3 - x74x130x3 - x197x130x3 - x115x130x3 - x41x130x3 = 0
2y189 - x114x189x1 - x218x189x1 - x9x189x1 - x128x189x1 = 0
2y217 - x134x217x3 - x129x217x3 - x196x217x3 - x8x217x3 - x74x217x3 - x72x217x3 - x197x217x3 - x115x217x3 - x41x217x3 = 0
2y221 - x134x221x2 - x196x221x2 - x206x221x2 - x84x221x2 - x114x221x2 - x224x221x2 - x74x221x2 - x246x221x2 = 0
2y138 - x134x138x3 - x129x138x3 - x196x138x3 - x8x138x3 - x74x138x3 - x168x138x3 - x197x138x3 - x115x138x3 - x175x138x3 = 0
1y61 - x150x61x1 - x114x61x1 - x218x61x1 - x9x61x1 - x128x61x1 - x115x61x1 - x176x61x1 = 0
1y61 - x134x61x2 - x22x61x2 - x196x61x2 - x206x61x2 - x84x61x2 - x114x61x2 - x224x61x2 - x74x61x2 - x168x61x2 - x246x61x2 - x213x61x2 = 0
1y75 - x228x75x1 - x150x75x1 - x114x75x1 - x218x75x1 - x9x75x1 - x128x75x1 - x115x75x1 - x176x75x1 = 0
1y75 - x134x75x2 - x22x75x2 - x196x75x2 - x206x75x2 - x84x75x2 - x114x75x2 - x224x75x2 - x74x75x2 - x168x75x2 - x246x75x2 - x213x75x2 = 0
2y179 - x134x179x2 - x196x179x2 - x206x179x2 - x84x179x2 - x114x179x2 - x224x179x2 - x74x179x2 - x168x179x2 - x246x179x2 - x213x179x2 - x54x179x2 = 0
2y144 - x134x144x2 - x22x144x2 - x196x144x2 - x206x144x2 - x84x144x2 - x114x144x2 - x224x144x2 - x74x144x2 - x168x144x2 - x246x144x2 - x213x144x2 - x171x144x2 - x54x144x2 - x221x144x2 - x61x144x2 - x75x144x2 = 0
1y231 - x150x231x1 - x28x231x1 - x114x231x1 - x218x231x1 - x9x231x1 - x128x231x1 - x115x231x1 - x54x231x1 - x80x231x1 = 0
1y231 - x134x231x2 - x22x231x2 - x196x231x2 - x206x231x2 - x84x231x2 - x114x231x2 - x224x231x2 - x74x231x2 - x168x231x2 - x246x231x2 - x213x231x2 - x171x231x2 - x54x231x2 - x179x231x2 = 0
1y139 - x134x139x2 - x22x139x2 - x196x139x2 - x206x139x2 - x84x139x2 - x114x139x2 - x224x139x2 - x74x139x2 - x168x139x2 - x246x139x2 - x213x139x2 - x171x139x2 - x54x139x2 - x221x139x2 - x61x139x2 - x75x139x2 = 0
1y139 - x134x139x3 - x129x139x3 - x22x139x3 - x196x139x3 - x5x139x3 - x150x139x3 - x2x139x3 - x28x139x3 - x8x139x3 - x74x139x3 - x72x139x3 - x168x139x3 - x197x139x3 - x115x139x3 - x171x139x3 - x41x139x3 - x175x139x3 - x130x139x3 - x217x139x3 = 0
1y216 - x228x216x1 - x5x216x1 - x150x216x1 - x28x216x1 - x114x216x1 - x218x216x1 - x9x216x1 - x128x216x1 - x115x216x1 - x176x216x1 - x54x216x1 - x80x216x1 - x61x216x1 = 0
1y216 - x134x216x2 - x22x216x2 - x196x216x2 - x206x216x2 - x84x216x2 - x114x216x2 - x224x216x2 - x74x216x2 - x168x216x2 - x246x216x2 - x213x216x2 - x171x216x2 - x54x216x2 - x61x216x2 - x179x216x2 = 0

s134 - s168 + 8.571952z134z168z2 <= 7.37
s134 - s168 + 8.571952z134z168z3 <= 7.37
s134 - s115 + 8.760405z134z115z3 <= 7.37
s134 - s171 + 8.563475z134z171z2 <= 7.37
s134 - s171 + 8.563475z134z171z3 <= 7.37
s134 - s41 + 8.807072z134z41z3 <= 7.37
s134 - s175 + 8.871957z134z175z3 <= 7.37
s134 - s54 + 8.863136z134z54z2 <= 7.37
s134 - s130 + 8.818460z134z130z3 <= 7.37
s134 - s217 + 8.807532z134z217z3 <= 7.37
s134 - s221 + 8.793737z134z221z2 <= 7.37
s134 - s138 + 8.925302z134z138z3 <= 7.37
s134 - s61 + 8.809984z134z61z2 <= 7.37
s134 - s75 + 8.794214z134z75z2 <= 7.37
s134 - s179 + 8.934769z134z179z2 <= 7.37
s134 - s144 + 8.806045z134z144z2 <= 7.37
s134 - s231 + 8.991440z134z231z2 <= 7.37
s134 - s139 + 8.840405z134z139z2 <= 7.37
s134 - s139 + 8.840405z134z139z3 <= 7.37
s134 - s216 + 8.927112z134z216z2 <= 7.37
s129 - s72 + 8.214590z129z72z3 <= 7.13
s129 - s115 + 8.596119z129z115z3 <= 7.13
s129 - s171 + 8.707987z129z171z3 <= 7.13
s129 - s41 + 8.662965z129z41z3 <= 7.13
s129 - s175 + 8.837766z129z175z3 <= 7.13
s129 - s130 + 8.652665z129z130z3 <= 7.13
s129 - s217 + 8.610371z129z217z3 <= 7.13
s129 - s138 + 8.905588z129z138z3 <= 7.13
s129 - s139 + 8.589987z129z139z3 <= 7.13
s22 - s171 + 8.739564z22z171z2 <= 7.62
s22 - s171 + 8.739564z22z171z3 <= 7.62
s22 - s61 + 9.199991z22z61z2 <= 7.62
s22 - s75 + 9.189330z22z75z2 <= 7.62
s22 - s144 + 9.201483z22z144z2 <= 7.62
s22 - s231 + 9.319347z22z231z2 <= 7.62
s22 - s139 + 9.231443z22z139z2 <= 7.62
s22 - s139 + 9.231443z22z139z3 <= 7.62
s22 - s216 + 9.297186z22z216z2 <= 7.62
s228 - s75 + 9.219177z228z75z1 <= 8.06
s228 - s216 + 9.483089z228z216z1 <= 8.06
s196 - s130 + 8.962822z196z130z3 <= 7.76
s196 - s217 + 8.934719z196z217z3 <= 7.76
s196 - s221 + 8.989166z196z221z2 <= 7.76
s196 - s138 + 9.192843z196z138z3 <= 7.76
s196 - s61 + 8.926583z196z61z2 <= 7.76
s196 - s75 + 8.907857z196z75z2 <= 7.76
s196 - s179 + 9.144564z196z179z2 <= 7.76
s196 - s144 + 8.929295z196z144z2 <= 7.76
s196 - s231 + 9.255478z196z231z2 <= 7.76
s196 - s139 + 8.953823z196z139z2 <= 7.76
s196 - s139 + 8.953823z196z139z3 <= 7.76
s196 - s216 + 9.093407z196z216z2 <= 7.76
s5 - s139 + 9.374406z5z139z3 <= 7.90
s5 - s216 + 9.408322z5z216z1 <= 7.90
s150 - s61 + 9.176190z150z61z1 <= 7.97
s150 - s75 + 9.233257z150z75z1 <= 7.97
s150 - s231 + 9.314777z150z231z1 <= 7.97
s150 - s139 + 9.209617z150z139z3 <= 7.97
s150 - s216 + 9.221539z150z216z1 <= 7.97
s2 - s139 + 9.240702z2z139z3 <= 8.04
s28 - s231 + 9.283988z28z231z1 <= 7.96
s28 - s139 + 9.270875z28z139z3 <= 7.96
s28 - s216 + 9.248172z28z216z1 <= 7.96
s206 - s224 + 8.510088z206z224z2 <= 7.12
s206 - s74 + 8.465528z206z74z2 <= 7.12
s206 - s168 + 8.450281z206z168z2 <= 7.12
s206 - s246 + 8.427078z206z246z2 <= 7.12
s206 - s213 + 8.613499z206z213z2 <= 7.12
s206 - s171 + 8.441975z206z171z2 <= 7.12
s206 - s54 + 8.646933z206z54z2 <= 7.12
s206 - s221 + 8.435073z206z221z2 <= 7.12
s206 - s61 + 8.533953z206z61z2 <= 7.12
s206 - s75 + 8.487576z206z75z2 <= 7.12
s206 - s179 + 8.725070z206z179z2 <= 7.12
s206 - s144 + 8.486426z206z144z2 <= 7.12
s206 - s231 + 8.807590z206z231z2 <= 7.12
s206 - s139 + 8.558445z206z139z2 <= 7.12
s206 - s216 + 8.693249z206z216z2 <= 7.12
s84 - s74 + 8.419498z84z74z2 <= 6.94
s84 - s168 + 8.349836z84z168z2 <= 6.94
s84 - s246 + 8.556286z84z246z2 <= 6.94
s84 - s213 + 8.659953z84z213z2 <= 6.94
s84 - s171 + 8.266555z84z171z2 <= 6.94
s84 - s54 + 8.724508z84z54z2 <= 6.94
s84 - s221 + 8.554543z84z221z2 <= 6.94
s84 - s61 + 8.656254z84z61z2 <= 6.94
s84 - s75 + 8.619270z84z75z2 <= 6.94
s84 - s179 + 8.794966z84z179z2 <= 6.94
s84 - s144 + 8.619171z84z144z2 <= 6.94
s84 - s231 + 8.840623z84z231z2 <= 6.94
s84 - s139 + 8.683651z84z139z2 <= 6.94
s84 - s216 + 8.788260z84z216z2 <= 6.94
s114 - s176 + 8.698033z114z176z1 <= 7.50
s114 - s80 + 9.032884z114z80z1 <= 7.50
s114 - s189 + 9.042432z114z189z1 <= 7.50
s114 - s221 + 8.695604z114z221z2 <= 7.50
s114 - s61 + 8.870152z114z61z1 <= 7.50
s114 - s61 + 8.870152z114z61z2 <= 7.50
s114 - s75 + 8.796895z114z75z1 <= 7.50
s114 - s75 + 8.796895z114z75z2 <= 7.50
s114 - s179 + 9.113707z114z179z2 <= 7.50
s114 - s144 + 8.782148z114z144z2 <= 7.50
s114 - s231 + 9.219372z114z231z1 <= 7.50
s114 - s231 + 9.219372z114z231z2 <= 7.50
s114 - s139 + 8.886334z114z139z2 <= 7.50
s114 - s216 + 9.059477z114z216z1 <= 7.50
s114 - s216 + 9.059477z114z216z2 <= 7.50
s224 - s213 + 9.649444z224z213z2 <= 8.52
s224 - s54 + 9.657437z224z54z2 <= 8.52
s224 - s221 + 9.922935z224z221z2 <= 8.52
s224 - s61 + 9.697889z224z61z2 <= 8.52
s224 - s75 + 9.771573z224z75z2 <= 8.52
s224 - s179 + 9.734994z224z179z2 <= 8.52
s224 - s144 + 9.812195z224z144z2 <= 8.52
s224 - s231 + 9.834184z224z231z2 <= 8.52
s224 - s139 + 9.729338z224z139z2 <= 8.52
s224 - s216 + 9.720000z224z216z2 <= 8.52
s8 - s197 + 9.686363z8z197z3 <= 8.54
s8 - s41 + 9.834316z8z41z3 <= 8.54
s8 - s175 + 9.785945z8z175z3 <= 8.54
s8 - s130 + 9.859026z8z130z3 <= 8.54
s8 - s217 + 9.880588z8z217z3 <= 8.54
s8 - s138 + 9.824800z8z138z3 <= 8.54
s8 - s139 + 9.940000z8z139z3 <= 8.54
s74 - s168 + 9.655375z74z168z2 <= 8.57
s74 - s168 + 9.655375z74z168z3 <= 8.57
s74 - s171 + 9.753060z74z171z2 <= 8.57
s74 - s171 + 9.753060z74z171z3 <= 8.57
s74 - s41 + 9.935209z74z41z3 <= 8.57
s74 - s175 + 9.900991z74z175z3 <= 8.57
s74 - s54 + 9.934478z74z54z2 <= 8.57
s74 - s130 + 9.957929z74z130z3 <= 8.57
s74 - s217 + 9.972768z74z217z3 <= 8.57
s74 - s221 + 10.113609z74z221z2 <= 8.57
s74 - s138 + 9.936909z74z138z3 <= 8.57
s74 - s61 + 9.994264z74z61z2 <= 8.57
s74 - s75 + 10.031206z74z75z2 <= 8.57
s74 - s179 + 9.985799z74z179z2 <= 8.57
s74 - s144 + 10.061212z74z144z2 <= 8.57
s74 - s231 + 9.998382z74z231z2 <= 8.57
s74 - s139 + 10.028209z74z139z2 <= 8.57
s74 - s139 + 10.028209z74z139z3 <= 8.57
s74 - s216 + 10.019493z74z216z2 <= 8.57
s218 - s128 + 9.656012z218z128z1 <= 8.58
s218 - s54 + 9.748259z218z54z1 <= 8.58
s218 - s80 + 9.753845z218z80z1 <= 8.58
s218 - s189 + 9.764391z218z189z1 <= 8.58
s218 - s61 + 9.871204z218z61z1 <= 8.58
s218 - s75 + 9.943929z218z75z1 <= 8.58
s218 - s231 + 9.840342z218z231z1 <= 8.58
s218 - s216 + 9.836472z218z216z1 <= 8.58
s72 - s217 + 10.042321z72z217z3 <= 8.62
s72 - s139 + 10.014236z72z139z3 <= 8.62
s9 - s128 + 9.707140z9z128z1 <= 8.66
s9 - s54 + 9.752616z9z54z1 <= 8.66
s9 - s80 + 9.756147z9z80z1 <= 8.66
s9 - s189 + 9.938488z9z189z1 <= 8.66
s9 - s61 + 9.868700z9z61z1 <= 8.66
s9 - s75 + 9.953636z9z75z1 <= 8.66
s9 - s231 + 9.919315z9z231z1 <= 8.66
s9 - s216 + 9.830750z9z216z1 <= 8.66
s168 - s171 + 9.788432z168z171z2 <= 8.69
s168 - s171 + 9.788432z168z171z3 <= 8.69
s168 - s138 + 10.140234z168z138z3 <= 8.69
s168 - s61 + 10.179988z168z61z2 <= 8.69
s168 - s75 + 10.204414z168z75z2 <= 8.69
s168 - s179 + 10.191110z168z179z2 <= 8.69
s168 - s144 + 10.230000z168z144z2 <= 8.69
s168 - s231 + 10.200380z168z231z2 <= 8.69
s168 - s139 + 10.213917z168z139z2 <= 8.69
s168 - s139 + 10.213917z168z139z3 <= 8.69
s168 - s216 + 10.222081z168z216z2 <= 8.69
s246 - s54 + 9.998257z246z54z2 <= 8.69
s246 - s221 + 9.882296z246z221z2 <= 8.69
s246 - s61 + 9.806428z246z61z2 <= 8.69
s246 - s75 + 9.759602z246z75z2 <= 8.69
s246 - s179 + 10.075804z246z179z2 <= 8.69
s246 - s144 + 9.784281z246z144z2 <= 8.69
s246 - s231 + 10.202943z246z231z2 <= 8.69
s246 - s139 + 9.824163z246z139z2 <= 8.69
s246 - s216 + 10.004465z246z216z2 <= 8.69
s128 - s54 + 9.822616z128z54z1 <= 8.73
s128 - s80 + 9.828432z128z80z1 <= 8.73
s128 - s189 + 9.985168z128z189z1 <= 8.73
s128 - s61 + 9.983858z128z61z1 <= 8.73
s128 - s75 + 10.070587z128z75z1 <= 8.73
s128 - s231 + 9.948378z128z231z1 <= 8.73
s128 - s216 + 9.912086z128z216z1 <= 8.73
s197 - s175 + 9.870001z197z175z3 <= 8.77
s197 - s130 + 10.019088z197z130z3 <= 8.77
s197 - s217 + 10.057209z197z217z3 <= 8.77
s197 - s138 + 9.912518z197z138z3 <= 8.77
s197 - s139 + 10.120365z197z139z3 <= 8.77
s115 - s41 + 9.846999z115z41z3 <= 8.78
s115 - s54 + 9.959505z115z54z1 <= 8.78
s115 - s80 + 9.957137z115z80z1 <= 8.78
s115 - s130 + 9.843246z115z130z3 <= 8.78
s115 - s217 + 9.830771z115z217z3 <= 8.78
s115 - s138 + 10.109376z115z138z3 <= 8.78
s115 - s61 + 9.853636z115z61z1 <= 8.78
s115 - s75 + 9.931144z115z75z1 <= 8.78
s115 - s231 + 10.165342z115z231z1 <= 8.78
s115 - s139 + 9.886666z115z139z3 <= 8.78
s115 - s216 + 9.974365z115z216z1 <= 8.78
s213 - s54 + 9.889949z213z54z2 <= 8.78
s213 - s61 + 10.066977z213z61z2 <= 8.78
s213 - s75 + 10.153869z213z75z2 <= 8.78
s213 - s179 + 9.926211z213z179z2 <= 8.78
s213 - s144 + 10.195799z213z144z2 <= 8.78
s213 - s231 + 9.974365z213z231z2 <= 8.78
s213 - s139 + 10.093049z213z139z2 <= 8.78
s213 - s216 + 9.980555z213z216z2 <= 8.78
s171 - s144 + 10.393034z171z144z2 <= 8.80
s171 - s231 + 10.408568z171z231z2 <= 8.80
s171 - s139 + 10.395465z171z139z2 <= 8.80
s171 - s139 + 10.395465z171z139z3 <= 8.80
s171 - s216 + 10.423396z171z216z2 <= 8.80
s41 - s130 + 9.977488z41z130z3 <= 8.95
s41 - s217 + 10.020867z41z217z3 <= 8.95
s41 - s139 + 10.081487z41z139z3 <= 8.95
s176 - s61 + 10.184895z176z61z1 <= 8.96
s176 - s75 + 10.086842z176z75z1 <= 8.96
s176 - s216 + 10.391741z176z216z1 <= 8.96
s175 - s138 + 10.068638z175z138z3 <= 9.00
s175 - s139 + 10.337376z175z139z3 <= 9.00
s54 - s80 + 10.036667z54z80z1 <= 9.03
s54 - s179 + 10.110277z54z179z2 <= 9.03
s54 - s144 + 10.394295z54z144z2 <= 9.03
s54 - s231 + 10.239337z54z231z1 <= 9.03
s54 - s231 + 10.239337z54z231z2 <= 9.03
s54 - s139 + 10.270462z54z139z2 <= 9.03
s54 - s216 + 10.120676z54z216z1 <= 9.03
s54 - s216 + 10.120676z54z216z2 <= 9.03
s80 - s231 + 10.263437z80z231z1 <= 9.05
s80 - s216 + 10.134328z80z216z1 <= 9.05
s130 - s139 + 10.175409z130z139z3 <= 9.07
s217 - s139 + 10.173245z217z139z3 <= 9.11
s221 - s144 + 10.277271z221z144z2 <= 9.13
s221 - s139 + 10.413862z221z139z2 <= 9.13
s61 - s144 + 10.353140z61z144z2 <= 9.21
s61 - s139 + 10.243994z61z139z2 <= 9.21
s61 - s216 + 10.416989z61z216z1 <= 9.21
s61 - s216 + 10.416989z61z216z2 <= 9.21
s75 - s144 + 10.302688z75z144z2 <= 9.26
s75 - s139 + 10.360222z75z139z2 <= 9.26
s179 - s231 + 10.418024z179z231z2 <= 9.27
s179 - s216 + 10.377497z179z216z2 <= 9.27

x134x168x2 - 1z134z168z2 <= 0
x134x168x3 - 1z134z168z3 <= 0
x134x115x3 - 1z134z115z3 <= 0
x134x171x2 - 1z134z171z2 <= 0
x134x171x3 - 1z134z171z3 <= 0
x134x41x3 - 2z134z41z3 <= 0
x134x175x3 - 2z134z175z3 <= 0
x134x54x2 - 1z134z54z2 <= 0
x134x130x3 - 2z134z130z3 <= 0
x134x217x3 - 2z134z217z3 <= 0
x134x221x2 - 2z134z221z2 <= 0
x134x138x3 - 2z134z138z3 <= 0
x134x61x2 - 1z134z61z2 <= 0
x134x75x2 - 1z134z75z2 <= 0
x134x179x2 - 2z134z179z2 <= 0
x134x144x2 - 2z134z144z2 <= 0
x134x231x2 - 1z134z231z2 <= 0
x134x139x2 - 1z134z139z2 <= 0
x134x139x3 - 1z134z139z3 <= 0
x134x216x2 - 1z134z216z2 <= 0
x129x72x3 - 2z129z72z3 <= 0
x129x115x3 - 1z129z115z3 <= 0
x129x171x3 - 1z129z171z3 <= 0
x129x41x3 - 2z129z41z3 <= 0
x129x175x3 - 2z129z175z3 <= 0
x129x130x3 - 2z129z130z3 <= 0
x129x217x3 - 2z129z217z3 <= 0
x129x138x3 - 2z129z138z3 <= 0
x129x139x3 - 1z129z139z3 <= 0
x22x171x2 - 1z22z171z2 <= 0
x22x171x3 - 1z22z171z3 <= 0
x22x61x2 - 1z22z61z2 <= 0
x22x75x2 - 1z22z75z2 <= 0
x22x144x2 - 2z22z144z2 <= 0
x22x231x2 - 1z22z231z2 <= 0
x22x139x2 - 1z22z139z2 <= 0
x22x139x3 - 1z22z139z3 <= 0
x22x216x2 - 1z22z216z2 <= 0
x228x75x1 - 1z228z75z1 <= 0
x228x216x1 - 1z228z216z1 <= 0
x196x130x3 - 2z196z130z3 <= 0
x196x217x3 - 2z196z217z3 <= 0
x196x221x2 - 2z196z221z2 <= 0
x196x138x3 - 2z196z138z3 <= 0
x196x61x2 - 1z196z61z2 <= 0
x196x75x2 - 1z196z75z2 <= 0
x196x179x2 - 2z196z179z2 <= 0
x196x144x2 - 2z196z144z2 <= 0
x196x231x2 - 1z196z231z2 <= 0
x196x139x2 - 1z196z139z2 <= 0
x196x139x3 - 1z196z139z3 <= 0
x196x216x2 - 1z196z216z2 <= 0
x5x139x3 - 1z5z139z3 <= 0
x5x216x1 - 1z5z216z1 <= 0
x150x61x1 - 1z150z61z1 <= 0
x150x75x1 - 1z150z75z1 <= 0
x150x231x1 - 1z150z231z1 <= 0
x150x139x3 - 1z150z139z3 <= 0
x150x216x1 - 1z150z216z1 <= 0
x2x139x3 - 1z2z139z3 <= 0
x28x231x1 - 1z28z231z1 <= 0
x28x139x3 - 1z28z139z3 <= 0
x28x216x1 - 1z28z216z1 <= 0
x206x224x2 - 2z206z224z2 <= 0
x206x74x2 - 1z206z74z2 <= 0
x206x168x2 - 1z206z168z2 <= 0
x206x246x2 - 2z206z246z2 <= 0
x206x213x2 - 2z206z213z2 <= 0
x206x171x2 - 1z206z171z2 <= 0
x206x54x2 - 1z206z54z2 <= 0
x206x221x2 - 2z206z221z2 <= 0
x206x61x2 - 1z206z61z2 <= 0
x206x75x2 - 1z206z75z2 <= 0
x206x179x2 - 2z206z179z2 <= 0
x206x144x2 - 2z206z144z2 <= 0
x206x231x2 - 1z206z231z2 <= 0
x206x139x2 - 1z206z139z2 <= 0
x206x216x2 - 1z206z216z2 <= 0
x84x74x2 - 1z84z74z2 <= 0
x84x168x2 - 1z84z168z2 <= 0
x84x246x2 - 2z84z246z2 <= 0
x84x213x2 - 2z84z213z2 <= 0
x84x171x2 - 1z84z171z2 <= 0
x84x54x2 - 1z84z54z2 <= 0
x84x221x2 - 2z84z221z2 <= 0
x84x61x2 - 1z84z61z2 <= 0
x84x75x2 - 1z84z75z2 <= 0
x84x179x2 - 2z84z179z2 <= 0
x84x144x2 - 2z84z144z2 <= 0
x84x231x2 - 1z84z231z2 <= 0
x84x139x2 - 1z84z139z2 <= 0
x84x216x2 - 1z84z216z2 <= 0
x114x176x1 - 2z114z176z1 <= 0
x114x80x1 - 2z114z80z1 <= 0
x114x189x1 - 2z114z189z1 <= 0
x114x221x2 - 2z114z221z2 <= 0
x114x61x1 - 1z114z61z1 <= 0
x114x61x2 - 1z114z61z2 <= 0
x114x75x1 - 1z114z75z1 <= 0
x114x75x2 - 1z114z75z2 <= 0
x114x179x2 - 2z114z179z2 <= 0
x114x144x2 - 2z114z144z2 <= 0
x114x231x1 - 1z114z231z1 <= 0
x114x231x2 - 1z114z231z2 <= 0
x114x139x2 - 1z114z139z2 <= 0
x114x216x1 - 1z114z216z1 <= 0
x114x216x2 - 1z114z216z2 <= 0
x224x213x2 - 2z224z213z2 <= 0
x224x54x2 - 1z224z54z2 <= 0
x224x221x2 - 2z224z221z2 <= 0
x224x61x2 - 1z224z61z2 <= 0
x224x75x2 - 1z224z75z2 <= 0
x224x179x2 - 2z224z179z2 <= 0
x224x144x2 - 2z224z144z2 <= 0
x224x231x2 - 1z224z231z2 <= 0
x224x139x2 - 1z224z139z2 <= 0
x224x216x2 - 1z224z216z2 <= 0
x224x0x2 <= 2
x8x197x3 - 2z8z197z3 <= 0
x8x41x3 - 2z8z41z3 <= 0
x8x175x3 - 2z8z175z3 <= 0
x8x130x3 - 2z8z130z3 <= 0
x8x217x3 - 2z8z217z3 <= 0
x8x138x3 - 2z8z138z3 <= 0
x8x139x3 - 1z8z139z3 <= 0
x8x0x3 <= 2
x74x168x2 - 1z74z168z2 <= 0
x74x168x3 - 1z74z168z3 <= 0
x74x171x2 - 1z74z171z2 <= 0
x74x171x3 - 1z74z171z3 <= 0
x74x41x3 - 2z74z41z3 <= 0
x74x175x3 - 2z74z175z3 <= 0
x74x54x2 - 1z74z54z2 <= 0
x74x130x3 - 2z74z130z3 <= 0
x74x217x3 - 2z74z217z3 <= 0
x74x221x2 - 2z74z221z2 <= 0
x74x138x3 - 2z74z138z3 <= 0
x74x61x2 - 1z74z61z2 <= 0
x74x75x2 - 1z74z75z2 <= 0
x74x179x2 - 2z74z179z2 <= 0
x74x144x2 - 2z74z144z2 <= 0
x74x231x2 - 1z74z231z2 <= 0
x74x139x2 - 1z74z139z2 <= 0
x74x139x3 - 1z74z139z3 <= 0
x74x216x2 - 1z74z216z2 <= 0
x74x0x2 <= 1
x74x0x3 <= 1
x218x128x1 - 2z218z128z1 <= 0
x218x54x1 - 1z218z54z1 <= 0
x218x80x1 - 2z218z80z1 <= 0
x218x189x1 - 2z218z189z1 <= 0
x218x61x1 - 1z218z61z1 <= 0
x218x75x1 - 1z218z75z1 <= 0
x218x231x1 - 1z218z231z1 <= 0
x218x216x1 - 1z218z216z1 <= 0
x218x0x1 <= 2
x72x217x3 - 2z72z217z3 <= 0
x72x139x3 - 1z72z139z3 <= 0
x72x0x3 <= 2
x9x128x1 - 2z9z128z1 <= 0
x9x54x1 - 1z9z54z1 <= 0
x9x80x1 - 2z9z80z1 <= 0
x9x189x1 - 2z9z189z1 <= 0
x9x61x1 - 1z9z61z1 <= 0
x9x75x1 - 1z9z75z1 <= 0
x9x231x1 - 1z9z231z1 <= 0
x9x216x1 - 1z9z216z1 <= 0
x9x0x1 <= 2
x168x171x2 - 1z168z171z2 <= 0
x168x171x3 - 1z168z171z3 <= 0
x168x138x3 - 2z168z138z3 <= 0
x168x61x2 - 1z168z61z2 <= 0
x168x75x2 - 1z168z75z2 <= 0
x168x179x2 - 2z168z179z2 <= 0
x168x144x2 - 2z168z144z2 <= 0
x168x231x2 - 1z168z231z2 <= 0
x168x139x2 - 1z168z139z2 <= 0
x168x139x3 - 1z168z139z3 <= 0
x168x216x2 - 1z168z216z2 <= 0
x168x0x2 <= 1
x168x0x3 <= 1
x246x54x2 - 1z246z54z2 <= 0
x246x221x2 - 2z246z221z2 <= 0
x246x61x2 - 1z246z61z2 <= 0
x246x75x2 - 1z246z75z2 <= 0
x246x179x2 - 2z246z179z2 <= 0
x246x144x2 - 2z246z144z2 <= 0
x246x231x2 - 1z246z231z2 <= 0
x246x139x2 - 1z246z139z2 <= 0
x246x216x2 - 1z246z216z2 <= 0
x246x0x2 <= 2
x128x54x1 - 1z128z54z1 <= 0
x128x80x1 - 2z128z80z1 <= 0
x128x189x1 - 2z128z189z1 <= 0
x128x61x1 - 1z128z61z1 <= 0
x128x75x1 - 1z128z75z1 <= 0
x128x231x1 - 1z128z231z1 <= 0
x128x216x1 - 1z128z216z1 <= 0
x128x0x1 <= 2
x197x175x3 - 2z197z175z3 <= 0
x197x130x3 - 2z197z130z3 <= 0
x197x217x3 - 2z197z217z3 <= 0
x197x138x3 - 2z197z138z3 <= 0
x197x139x3 - 1z197z139z3 <= 0
x197x0x3 <= 2
x115x41x3 - 2z115z41z3 <= 0
x115x54x1 - 1z115z54z1 <= 0
x115x80x1 - 2z115z80z1 <= 0
x115x130x3 - 2z115z130z3 <= 0
x115x217x3 - 2z115z217z3 <= 0
x115x138x3 - 2z115z138z3 <= 0
x115x61x1 - 1z115z61z1 <= 0
x115x75x1 - 1z115z75z1 <= 0
x115x231x1 - 1z115z231z1 <= 0
x115x139x3 - 1z115z139z3 <= 0
x115x216x1 - 1z115z216z1 <= 0
x115x0x1 <= 1
x115x0x3 <= 1
x213x54x2 - 1z213z54z2 <= 0
x213x61x2 - 1z213z61z2 <= 0
x213x75x2 - 1z213z75z2 <= 0
x213x179x2 - 2z213z179z2 <= 0
x213x144x2 - 2z213z144z2 <= 0
x213x231x2 - 1z213z231z2 <= 0
x213x139x2 - 1z213z139z2 <= 0
x213x216x2 - 1z213z216z2 <= 0
x213x0x2 <= 2
x171x144x2 - 2z171z144z2 <= 0
x171x231x2 - 1z171z231z2 <= 0
x171x139x2 - 1z171z139z2 <= 0
x171x139x3 - 1z171z139z3 <= 0
x171x216x2 - 1z171z216z2 <= 0
x171x0x2 <= 1
x171x0x3 <= 1
x41x130x3 - 2z41z130z3 <= 0
x41x217x3 - 2z41z217z3 <= 0
x41x139x3 - 1z41z139z3 <= 0
x41x0x3 <= 2
x176x61x1 - 1z176z61z1 <= 0
x176x75x1 - 1z176z75z1 <= 0
x176x216x1 - 1z176z216z1 <= 0
x176x0x1 <= 2
x175x138x3 - 2z175z138z3 <= 0
x175x139x3 - 1z175z139z3 <= 0
x175x0x3 <= 2
x54x80x1 - 2z54z80z1 <= 0
x54x179x2 - 2z54z179z2 <= 0
x54x144x2 - 2z54z144z2 <= 0
x54x231x1 - 1z54z231z1 <= 0
x54x231x2 - 1z54z231z2 <= 0
x54x139x2 - 1z54z139z2 <= 0
x54x216x1 - 1z54z216z1 <= 0
x54x216x2 - 1z54z216z2 <= 0
x54x0x1 <= 1
x54x0x2 <= 1
x80x231x1 - 1z80z231z1 <= 0
x80x216x1 - 1z80z216z1 <= 0
x80x0x1 <= 2
x130x139x3 - 1z130z139z3 <= 0
x130x0x3 <= 2
x189x0x1 <= 2
x217x139x3 - 1z217z139z3 <= 0
x217x0x3 <= 2
x221x144x2 - 2z221z144z2 <= 0
x221x139x2 - 1z221z139z2 <= 0
x221x0x2 <= 2
x138x0x3 <= 2
x61x144x2 - 2z61z144z2 <= 0
x61x139x2 - 1z61z139z2 <= 0
x61x216x1 - 1z61z216z1 <= 0
x61x216x2 - 1z61z216z2 <= 0
x61x0x1 <= 1
x61x0x2 <= 1
x75x144x2 - 2z75z144z2 <= 0
x75x139x2 - 1z75z139z2 <= 0
x75x0x1 <= 1
x75x0x2 <= 1
x179x231x2 - 1z179z231z2 <= 0
x179x216x2 - 1z179z216z2 <= 0
x179x0x2 <= 2
x144x0x2 <= 2
x231x0x1 <= 1
x231x0x2 <= 1
x139x0x2 <= 1
x139x0x3 <= 1
x216x0x1 <= 1
x216x0x2 <= 1

Bounds
s134 = 7.373738
s129 = 7.129215
s22 = 7.619379
s228 = 8.056423
s196 = 7.755833
s5 = 7.903898
s112 = 8.279703
s150 = 7.969524
s2 = 8.043724
s28 = 7.963918
s15 = 8.492393
s206 = 7.119760
s84 = 6.943170
s114 = 7.504700
7.520000 <= s224 <= 8.520000
7.540000 <= s8 <= 8.540000
7.570000 <= s74 <= 8.570000
7.580000 <= s218 <= 8.580000
7.620000 <= s72 <= 8.620000
7.660000 <= s9 <= 8.660000
7.690000 <= s168 <= 8.690000
7.690000 <= s246 <= 8.690000
7.730000 <= s128 <= 8.730000
7.770000 <= s197 <= 8.770000
7.780000 <= s115 <= 8.780000
7.780000 <= s213 <= 8.780000
7.800000 <= s171 <= 8.800000
7.950000 <= s41 <= 8.950000
7.960000 <= s176 <= 8.960000
8.000000 <= s175 <= 9.000000
8.030000 <= s54 <= 9.030000
8.050000 <= s80 <= 9.050000
8.070000 <= s130 <= 9.070000
8.110000 <= s189 <= 9.110000
8.110000 <= s217 <= 9.110000
8.130000 <= s221 <= 9.130000
8.200000 <= s138 <= 9.200000
8.210000 <= s61 <= 9.210000
8.260000 <= s75 <= 9.260000
8.270000 <= s179 <= 9.270000
8.400000 <= s144 <= 9.400000
8.420000 <= s231 <= 9.420000
8.490000 <= s139 <= 9.490000
8.490000 <= s216 <= 9.490000

General
x134x168x2 x134x168x3 x134x115x3 x134x171x2 x134x171x3 x134x41x3 x134x175x3 x134x54x2 x134x130x3 x134x217x3 x134x221x2 x134x138x3 x134x61x2 x134x75x2 x134x179x2 x134x144x2 x134x231x2 x134x139x2 x134x139x3 x134x216x2 
x129x72x3 x129x115x3 x129x171x3 x129x41x3 x129x175x3 x129x130x3 x129x217x3 x129x138x3 x129x139x3 
x22x171x2 x22x171x3 x22x61x2 x22x75x2 x22x144x2 x22x231x2 x22x139x2 x22x139x3 x22x216x2 
x228x75x1 x228x216x1 
x196x130x3 x196x217x3 x196x221x2 x196x138x3 x196x61x2 x196x75x2 x196x179x2 x196x144x2 x196x231x2 x196x139x2 x196x139x3 x196x216x2 
x5x139x3 x5x216x1 

x150x61x1 x150x75x1 x150x231x1 x150x139x3 x150x216x1 
x2x139x3 
x28x231x1 x28x139x3 x28x216x1 

x206x224x2 x206x74x2 x206x168x2 x206x246x2 x206x213x2 x206x171x2 x206x54x2 x206x221x2 x206x61x2 x206x75x2 x206x179x2 x206x144x2 x206x231x2 x206x139x2 x206x216x2 
x84x74x2 x84x168x2 x84x246x2 x84x213x2 x84x171x2 x84x54x2 x84x221x2 x84x61x2 x84x75x2 x84x179x2 x84x144x2 x84x231x2 x84x139x2 x84x216x2 
x114x176x1 x114x80x1 x114x189x1 x114x221x2 x114x61x1 x114x61x2 x114x75x1 x114x75x2 x114x179x2 x114x144x2 x114x231x1 x114x231x2 x114x139x2 x114x216x1 x114x216x2 
x224x213x2 x224x54x2 x224x221x2 x224x61x2 x224x75x2 x224x179x2 x224x144x2 x224x231x2 x224x139x2 x224x216x2 x224x0x2 
x8x197x3 x8x41x3 x8x175x3 x8x130x3 x8x217x3 x8x138x3 x8x139x3 x8x0x3 
x74x168x2 x74x168x3 x74x171x2 x74x171x3 x74x41x3 x74x175x3 x74x54x2 x74x130x3 x74x217x3 x74x221x2 x74x138x3 x74x61x2 x74x75x2 x74x179x2 x74x144x2 x74x231x2 x74x139x2 x74x139x3 x74x216x2 x74x0x2 x74x0x3 
x218x128x1 x218x54x1 x218x80x1 x218x189x1 x218x61x1 x218x75x1 x218x231x1 x218x216x1 x218x0x1 
x72x217x3 x72x139x3 x72x0x3 
x9x128x1 x9x54x1 x9x80x1 x9x189x1 x9x61x1 x9x75x1 x9x231x1 x9x216x1 x9x0x1 
x168x171x2 x168x171x3 x168x138x3 x168x61x2 x168x75x2 x168x179x2 x168x144x2 x168x231x2 x168x139x2 x168x139x3 x168x216x2 x168x0x2 x168x0x3 
x246x54x2 x246x221x2 x246x61x2 x246x75x2 x246x179x2 x246x144x2 x246x231x2 x246x139x2 x246x216x2 x246x0x2 
x128x54x1 x128x80x1 x128x189x1 x128x61x1 x128x75x1 x128x231x1 x128x216x1 x128x0x1 
x197x175x3 x197x130x3 x197x217x3 x197x138x3 x197x139x3 x197x0x3 
x115x41x3 x115x54x1 x115x80x1 x115x130x3 x115x217x3 x115x138x3 x115x61x1 x115x75x1 x115x231x1 x115x139x3 x115x216x1 x115x0x1 x115x0x3 
x213x54x2 x213x61x2 x213x75x2 x213x179x2 x213x144x2 x213x231x2 x213x139x2 x213x216x2 x213x0x2 
x171x144x2 x171x231x2 x171x139x2 x171x139x3 x171x216x2 x171x0x2 x171x0x3 
x41x130x3 x41x217x3 x41x139x3 x41x0x3 
x176x61x1 x176x75x1 x176x216x1 x176x0x1 
x175x138x3 x175x139x3 x175x0x3 
x54x80x1 x54x179x2 x54x144x2 x54x231x1 x54x231x2 x54x139x2 x54x216x1 x54x216x2 x54x0x1 x54x0x2 
x80x231x1 x80x216x1 x80x0x1 
x130x139x3 x130x0x3 
x189x0x1 
x217x139x3 x217x0x3 
x221x144x2 x221x139x2 x221x0x2 
x138x0x3 
x61x144x2 x61x139x2 x61x216x1 x61x216x2 x61x0x1 x61x0x2 
x75x144x2 x75x139x2 x75x0x1 x75x0x2 
x179x231x2 x179x216x2 x179x0x2 
x144x0x2 
x231x0x1 x231x0x2 
x139x0x2 x139x0x3 
x216x0x1 x216x0x2 

Binaries
y224 y8 y74 y218 y72 y9 y168 y246 y128 y197 y115 y213 y171 y41 y176 y175 y54 y80 y130 y189 y217 y221 y138 y61 y75 y179 y144 y231 y139 y216 
z134z168z2 z134z168z3 z134z115z3 z134z171z2 z134z171z3 z134z41z3 z134z175z3 z134z54z2 z134z130z3 z134z217z3 z134z221z2 z134z138z3 z134z61z2 z134z75z2 z134z179z2 z134z144z2 z134z231z2 z134z139z2 z134z139z3 z134z216z2 
z129z72z3 z129z115z3 z129z171z3 z129z41z3 z129z175z3 z129z130z3 z129z217z3 z129z138z3 z129z139z3 
z22z171z2 z22z171z3 z22z61z2 z22z75z2 z22z144z2 z22z231z2 z22z139z2 z22z139z3 z22z216z2 
z228z75z1 z228z216z1 
z196z130z3 z196z217z3 z196z221z2 z196z138z3 z196z61z2 z196z75z2 z196z179z2 z196z144z2 z196z231z2 z196z139z2 z196z139z3 z196z216z2 
z5z139z3 z5z216z1 

z150z61z1 z150z75z1 z150z231z1 z150z139z3 z150z216z1 
z2z139z3 
z28z231z1 z28z139z3 z28z216z1 

z206z224z2 z206z74z2 z206z168z2 z206z246z2 z206z213z2 z206z171z2 z206z54z2 z206z221z2 z206z61z2 z206z75z2 z206z179z2 z206z144z2 z206z231z2 z206z139z2 z206z216z2 
z84z74z2 z84z168z2 z84z246z2 z84z213z2 z84z171z2 z84z54z2 z84z221z2 z84z61z2 z84z75z2 z84z179z2 z84z144z2 z84z231z2 z84z139z2 z84z216z2 
z114z176z1 z114z80z1 z114z189z1 z114z221z2 z114z61z1 z114z61z2 z114z75z1 z114z75z2 z114z179z2 z114z144z2 z114z231z1 z114z231z2 z114z139z2 z114z216z1 z114z216z2 
z224z213z2 z224z54z2 z224z221z2 z224z61z2 z224z75z2 z224z179z2 z224z144z2 z224z231z2 z224z139z2 z224z216z2 
z8z197z3 z8z41z3 z8z175z3 z8z130z3 z8z217z3 z8z138z3 z8z139z3 
z74z168z2 z74z168z3 z74z171z2 z74z171z3 z74z41z3 z74z175z3 z74z54z2 z74z130z3 z74z217z3 z74z221z2 z74z138z3 z74z61z2 z74z75z2 z74z179z2 z74z144z2 z74z231z2 z74z139z2 z74z139z3 z74z216z2 
z218z128z1 z218z54z1 z218z80z1 z218z189z1 z218z61z1 z218z75z1 z218z231z1 z218z216z1 
z72z217z3 z72z139z3 
z9z128z1 z9z54z1 z9z80z1 z9z189z1 z9z61z1 z9z75z1 z9z231z1 z9z216z1 
z168z171z2 z168z171z3 z168z138z3 z168z61z2 z168z75z2 z168z179z2 z168z144z2 z168z231z2 z168z139z2 z168z139z3 z168z216z2 
z246z54z2 z246z221z2 z246z61z2 z246z75z2 z246z179z2 z246z144z2 z246z231z2 z246z139z2 z246z216z2 
z128z54z1 z128z80z1 z128z189z1 z128z61z1 z128z75z1 z128z231z1 z128z216z1 
z197z175z3 z197z130z3 z197z217z3 z197z138z3 z197z139z3 
z115z41z3 z115z54z1 z115z80z1 z115z130z3 z115z217z3 z115z138z3 z115z61z1 z115z75z1 z115z231z1 z115z139z3 z115z216z1 
z213z54z2 z213z61z2 z213z75z2 z213z179z2 z213z144z2 z213z231z2 z213z139z2 z213z216z2 
z171z144z2 z171z231z2 z171z139z2 z171z139z3 z171z216z2 
z41z130z3 z41z217z3 z41z139z3 
z176z61z1 z176z75z1 z176z216z1 
z175z138z3 z175z139z3 
z54z80z1 z54z179z2 z54z144z2 z54z231z1 z54z231z2 z54z139z2 z54z216z1 z54z216z2 
z80z231z1 z80z216z1 
z130z139z3 

z217z139z3 
z221z144z2 z221z139z2 

z61z144z2 z61z139z2 z61z216z1 z61z216z2 
z75z144z2 z75z139z2 
z179z231z2 z179z216z2 





End